! r2SCAN-3c TightSCF Mayer

* xyzfile 0 1 1-N-Me-7-aza_opt.xyz

