!r2SCAN-3c TightSCF OPT

%pal
  nprocs 16
end

* xyzfile 0 1  3-Indoleacrylic_acid.xyz
