! r2SCAN-3c TightSCF Mayer

* xyzfile 0 1 1f_opt.xyz

