! r2SCAN-3c TightSCF Mayer

* xyzfile 0 1 1d_opt.xyz

