! r2SCAN-3c TightSCF Mayer

* xyzfile 0 1 3-Indoleacrylic_acid_opt.xyz

