! r2SCAN-3c TightSCF Mayer

* xyzfile 0 1 7-aza_opt.xyz

