! r2SCAN-3c TightSCF

%pal
  nprocs 16
end

%scf
  PrintLevel 2
end

* xyzfile 0 1 1e_opt.xyz

