! r2SCAN-3c TightSCF Mayer

* xyzfile 0 1 4-aza_opt.xyz

